(set-logic QF_FPABV)
(declare-fun b911 () (_ FP 8 24))
(declare-fun b772 () (_ FP 8 24))
(declare-fun b856 () (_ FP 8 24))
(declare-fun b832 () (_ FP 8 24))
(declare-fun b155 () (_ FP 8 24))
(declare-fun b896 () (_ FP 8 24))
(declare-fun b531 () (_ FP 8 24))
(declare-fun b244 () (_ FP 11 53))
(declare-fun b777 () (_ FP 8 24))
(declare-fun b906 () (_ FP 8 24))
(declare-fun b770 () (_ FP 8 24))
(declare-fun b866 () (_ FP 8 24))
(declare-fun b162 () (_ FP 8 24))
(declare-fun b891 () (_ FP 8 24))
(declare-fun b227 () (_ FP 11 53))
(declare-fun b210 () (_ FP 11 53))
(declare-fun b379 () (_ FP 11 53))
(declare-fun b328 () (_ FP 11 53))
(declare-fun b807 () (_ FP 8 24))
(declare-fun b827 () (_ FP 8 24))
(declare-fun b787 () (_ FP 8 24))
(declare-fun b362 () (_ FP 11 53))
(declare-fun b881 () (_ FP 8 24))
(declare-fun b851 () (_ FP 8 24))
(declare-fun b817 () (_ FP 8 24))
(declare-fun b261 () (_ FP 11 53))
(declare-fun b528 () (_ FP 8 24))
(declare-fun b871 () (_ FP 8 24))
(declare-fun b846 () (_ FP 8 24))
(declare-fun b312 () (_ FP 11 53))
(declare-fun b194 () (_ FP 11 53))
(declare-fun b345 () (_ FP 11 53))
(declare-fun b782 () (_ FP 8 24))
(declare-fun b916 () (_ FP 8 24))
(declare-fun b886 () (_ FP 8 24))
(declare-fun b295 () (_ FP 11 53))
(declare-fun b413 () (_ FP 11 53))
(declare-fun b185 () (_ FP 11 53))
(declare-fun b792 () (_ FP 8 24))
(declare-fun b861 () (_ FP 8 24))
(declare-fun b837 () (_ FP 8 24))
(declare-fun b812 () (_ FP 8 24))
(declare-fun b901 () (_ FP 8 24))
(declare-fun b797 () (_ FP 8 24))
(declare-fun b822 () (_ FP 8 24))
(declare-fun b765 () (_ FP 8 24))
(declare-fun b278 () (_ FP 11 53))
(declare-fun b172 () (_ FP 11 53))
(declare-fun b876 () (_ FP 8 24))
(declare-fun b153 () (_ FP 8 24))
(declare-fun b802 () (_ FP 8 24))
(declare-fun b396 () (_ FP 11 53))
(define-fun .3 () RoundingMode roundNearestTiesToEven)
(define-fun .9 () (_ FP 8 24) b153)
(define-fun .10 () (_ FP 8 24) (* .3 .9 .9))
(define-fun .11 () (_ FP 8 24) (- .10))
(define-fun .12 () (_ FP 8 24) (* .3 .9 .11))
(define-fun .13 () (_ FP 11 53) ((_ asFloat 11 53) .3 .12))
(define-fun .14 () (_ FP 11 53) b172)
(define-fun .15 () (_ FP 11 53) (/ .3 .13 .14))
(define-fun .16 () (_ FP 8 24) ((_ asFloat 8 24) .3 .15))
(define-fun .17 () (_ FP 8 24) b916)
(define-fun .18 () Bool (= .16 .17))
(define-fun .19 () Bool (not .18))
(define-fun .20 () (_ FP 8 24) (* .3 .11 .16))
(define-fun .21 () (_ FP 11 53) ((_ asFloat 11 53) .3 .20))
(define-fun .22 () (_ FP 11 53) b194)
(define-fun .23 () (_ FP 11 53) (/ .3 .21 .22))
(define-fun .24 () (_ FP 8 24) ((_ asFloat 8 24) .3 .23))
(define-fun .25 () (_ FP 8 24) b911)
(define-fun .26 () Bool (= .24 .25))
(define-fun .27 () Bool (not .26))
(define-fun .28 () (_ FP 8 24) (* .3 .11 .24))
(define-fun .29 () (_ FP 11 53) ((_ asFloat 11 53) .3 .28))
(define-fun .30 () (_ FP 11 53) b210)
(define-fun .31 () (_ FP 11 53) (/ .3 .29 .30))
(define-fun .32 () (_ FP 8 24) ((_ asFloat 8 24) .3 .31))
(define-fun .33 () (_ FP 8 24) b906)
(define-fun .34 () Bool (= .32 .33))
(define-fun .35 () Bool (not .34))
(define-fun .36 () (_ FP 8 24) (* .3 .11 .32))
(define-fun .37 () (_ FP 11 53) ((_ asFloat 11 53) .3 .36))
(define-fun .38 () (_ FP 11 53) b227)
(define-fun .39 () (_ FP 11 53) (/ .3 .37 .38))
(define-fun .40 () (_ FP 8 24) ((_ asFloat 8 24) .3 .39))
(define-fun .41 () (_ FP 8 24) b901)
(define-fun .42 () Bool (= .40 .41))
(define-fun .43 () Bool (not .42))
(define-fun .44 () (_ FP 8 24) (* .3 .11 .40))
(define-fun .45 () (_ FP 11 53) ((_ asFloat 11 53) .3 .44))
(define-fun .46 () (_ FP 11 53) b244)
(define-fun .47 () (_ FP 11 53) (/ .3 .45 .46))
(define-fun .48 () (_ FP 8 24) ((_ asFloat 8 24) .3 .47))
(define-fun .49 () (_ FP 8 24) b896)
(define-fun .50 () Bool (= .48 .49))
(define-fun .51 () Bool (not .50))
(define-fun .52 () (_ FP 8 24) (* .3 .11 .48))
(define-fun .53 () (_ FP 11 53) ((_ asFloat 11 53) .3 .52))
(define-fun .54 () (_ FP 11 53) b261)
(define-fun .55 () (_ FP 11 53) (/ .3 .53 .54))
(define-fun .56 () (_ FP 8 24) ((_ asFloat 8 24) .3 .55))
(define-fun .57 () (_ FP 8 24) b891)
(define-fun .58 () Bool (= .56 .57))
(define-fun .59 () Bool (not .58))
(define-fun .60 () (_ FP 8 24) (* .3 .11 .56))
(define-fun .61 () (_ FP 11 53) ((_ asFloat 11 53) .3 .60))
(define-fun .62 () (_ FP 11 53) b278)
(define-fun .63 () (_ FP 11 53) (/ .3 .61 .62))
(define-fun .64 () (_ FP 8 24) ((_ asFloat 8 24) .3 .63))
(define-fun .65 () (_ FP 8 24) b886)
(define-fun .66 () Bool (= .64 .65))
(define-fun .67 () Bool (not .66))
(define-fun .68 () (_ FP 8 24) (* .3 .11 .64))
(define-fun .69 () (_ FP 11 53) ((_ asFloat 11 53) .3 .68))
(define-fun .70 () (_ FP 11 53) b295)
(define-fun .71 () (_ FP 11 53) (/ .3 .69 .70))
(define-fun .72 () (_ FP 8 24) ((_ asFloat 8 24) .3 .71))
(define-fun .73 () (_ FP 8 24) b881)
(define-fun .74 () Bool (= .72 .73))
(define-fun .75 () Bool (not .74))
(define-fun .76 () (_ FP 8 24) (* .3 .11 .72))
(define-fun .77 () (_ FP 11 53) ((_ asFloat 11 53) .3 .76))
(define-fun .78 () (_ FP 11 53) b312)
(define-fun .79 () (_ FP 11 53) (/ .3 .77 .78))
(define-fun .80 () (_ FP 8 24) ((_ asFloat 8 24) .3 .79))
(define-fun .81 () (_ FP 8 24) b876)
(define-fun .82 () Bool (= .80 .81))
(define-fun .83 () Bool (not .82))
(define-fun .84 () (_ FP 8 24) (* .3 .11 .80))
(define-fun .85 () (_ FP 11 53) ((_ asFloat 11 53) .3 .84))
(define-fun .86 () (_ FP 11 53) b328)
(define-fun .87 () (_ FP 11 53) (/ .3 .85 .86))
(define-fun .88 () (_ FP 8 24) ((_ asFloat 8 24) .3 .87))
(define-fun .89 () (_ FP 8 24) b871)
(define-fun .90 () Bool (= .88 .89))
(define-fun .91 () Bool (not .90))
(define-fun .92 () (_ FP 8 24) (* .3 .11 .88))
(define-fun .93 () (_ FP 11 53) ((_ asFloat 11 53) .3 .92))
(define-fun .94 () (_ FP 11 53) b345)
(define-fun .95 () (_ FP 11 53) (/ .3 .93 .94))
(define-fun .96 () (_ FP 8 24) ((_ asFloat 8 24) .3 .95))
(define-fun .97 () (_ FP 8 24) b866)
(define-fun .98 () Bool (= .96 .97))
(define-fun .99 () Bool (not .98))
(define-fun .100 () (_ FP 8 24) (* .3 .11 .96))
(define-fun .101 () (_ FP 11 53) ((_ asFloat 11 53) .3 .100))
(define-fun .102 () (_ FP 11 53) b362)
(define-fun .103 () (_ FP 11 53) (/ .3 .101 .102))
(define-fun .104 () (_ FP 8 24) ((_ asFloat 8 24) .3 .103))
(define-fun .105 () (_ FP 8 24) b861)
(define-fun .106 () Bool (= .104 .105))
(define-fun .107 () Bool (not .106))
(define-fun .108 () (_ FP 8 24) (* .3 .11 .104))
(define-fun .109 () (_ FP 11 53) ((_ asFloat 11 53) .3 .108))
(define-fun .110 () (_ FP 11 53) b379)
(define-fun .111 () (_ FP 11 53) (/ .3 .109 .110))
(define-fun .112 () (_ FP 8 24) ((_ asFloat 8 24) .3 .111))
(define-fun .113 () (_ FP 8 24) b856)
(define-fun .114 () Bool (= .112 .113))
(define-fun .115 () Bool (not .114))
(define-fun .116 () (_ FP 8 24) (* .3 .11 .112))
(define-fun .117 () (_ FP 11 53) ((_ asFloat 11 53) .3 .116))
(define-fun .118 () (_ FP 11 53) b396)
(define-fun .119 () (_ FP 11 53) (/ .3 .117 .118))
(define-fun .120 () (_ FP 8 24) ((_ asFloat 8 24) .3 .119))
(define-fun .121 () (_ FP 8 24) b851)
(define-fun .122 () Bool (= .120 .121))
(define-fun .123 () Bool (not .122))
(define-fun .124 () (_ FP 8 24) (* .3 .11 .120))
(define-fun .125 () (_ FP 11 53) ((_ asFloat 11 53) .3 .124))
(define-fun .126 () (_ FP 11 53) b413)
(define-fun .127 () (_ FP 11 53) (/ .3 .125 .126))
(define-fun .128 () (_ FP 8 24) ((_ asFloat 8 24) .3 .127))
(define-fun .129 () (_ FP 8 24) b846)
(define-fun .130 () Bool (= .128 .129))
(define-fun .131 () Bool (not .130))
(define-fun .132 () (_ FP 8 24) b770)
(define-fun .133 () (_ FP 8 24) b837)
(define-fun .134 () Bool (= .132 .133))
(define-fun .135 () Bool (not .134))
(define-fun .136 () (_ FP 8 24) b832)
(define-fun .137 () Bool (= .133 .136))
(define-fun .138 () Bool (not .137))
(define-fun .139 () (_ FP 8 24) b827)
(define-fun .140 () Bool (= .136 .139))
(define-fun .141 () Bool (not .140))
(define-fun .142 () (_ FP 8 24) b822)
(define-fun .143 () Bool (= .139 .142))
(define-fun .144 () Bool (not .143))
(define-fun .145 () (_ FP 8 24) b817)
(define-fun .146 () Bool (= .142 .145))
(define-fun .147 () Bool (not .146))
(define-fun .148 () (_ FP 8 24) b812)
(define-fun .149 () Bool (= .145 .148))
(define-fun .150 () Bool (not .149))
(define-fun .151 () (_ FP 8 24) b807)
(define-fun .152 () Bool (= .148 .151))
(define-fun .153 () Bool (not .152))
(define-fun .154 () (_ FP 8 24) b802)
(define-fun .155 () Bool (= .151 .154))
(define-fun .156 () Bool (not .155))
(define-fun .157 () (_ FP 8 24) b797)
(define-fun .158 () Bool (= .154 .157))
(define-fun .159 () Bool (not .158))
(define-fun .160 () (_ FP 8 24) b792)
(define-fun .161 () Bool (= .157 .160))
(define-fun .162 () Bool (not .161))
(define-fun .163 () (_ FP 8 24) b787)
(define-fun .164 () Bool (= .160 .163))
(define-fun .165 () Bool (not .164))
(define-fun .166 () (_ FP 8 24) b782)
(define-fun .167 () Bool (= .163 .166))
(define-fun .168 () Bool (not .167))
(define-fun .169 () (_ FP 8 24) b777)
(define-fun .170 () Bool (= .166 .169))
(define-fun .171 () Bool (not .170))
(define-fun .172 () (_ FP 8 24) (+ .3 .9 .16))
(define-fun .173 () (_ FP 8 24) (+ .3 .24 .172))
(define-fun .174 () (_ FP 8 24) (+ .3 .32 .173))
(define-fun .175 () (_ FP 8 24) (+ .3 .40 .174))
(define-fun .176 () (_ FP 8 24) (+ .3 .48 .175))
(define-fun .177 () (_ FP 8 24) (+ .3 .56 .176))
(define-fun .178 () (_ FP 8 24) (+ .3 .64 .177))
(define-fun .179 () (_ FP 8 24) (+ .3 .72 .178))
(define-fun .180 () (_ FP 8 24) (+ .3 .80 .179))
(define-fun .181 () (_ FP 8 24) (+ .3 .88 .180))
(define-fun .182 () (_ FP 8 24) (+ .3 .96 .181))
(define-fun .183 () (_ FP 8 24) (+ .3 .104 .182))
(define-fun .184 () (_ FP 8 24) (+ .3 .112 .183))
(define-fun .185 () (_ FP 8 24) (+ .3 .120 .184))
(define-fun .186 () (_ FP 8 24) (+ .3 .128 .185))
(define-fun .187 () Bool (= .169 .186))
(define-fun .188 () Bool (not .187))
(define-fun .189 () (_ FP 8 24) b772)
(define-fun .190 () Bool (= .132 .189))
(define-fun .191 () Bool (not .190))
(define-fun .192 () (_ FP 8 24) b765)
(define-fun .193 () Bool (= .9 .192))
(define-fun .194 () Bool (not .193))
(define-fun .195 () (_ FP 8 24) b155)
(define-fun .196 () Bool (<= .195 .9))
(define-fun .197 () Bool (not .196))
(define-fun .198 () (_ FP 8 24) (- .9))
(define-fun .199 () Bool (= .192 .198))
(define-fun .200 () Bool (and .197 .199))
(define-fun .201 () Bool (and .194 .200))
(define-fun .202 () Bool (<= .195 .132))
(define-fun .203 () Bool (not .202))
(define-fun .204 () Bool (and .201 .203))
(define-fun .205 () (_ FP 8 24) (- .132))
(define-fun .206 () Bool (= .189 .205))
(define-fun .207 () Bool (and .204 .206))
(define-fun .208 () Bool (and .191 .207))
(define-fun .209 () (_ FP 11 53) ((_ asFloat 11 53) .3 .121))
(define-fun .210 () (_ FP 11 53) b185)
(define-fun .211 () Bool (<= .210 .209))
(define-fun .212 () Bool (not .211))
(define-fun .213 () Bool (and .208 .212))
(define-fun .214 () Bool (= .169 .185))
(define-fun .215 () Bool (and .213 .214))
(define-fun .216 () (_ FP 8 24) b162)
(define-fun .217 () Bool (<= .189 .216))
(define-fun .218 () Bool (not .217))
(define-fun .219 () Bool (and .215 .218))
(define-fun .220 () (_ FP 8 24) b531)
(define-fun .221 () Bool (<= .192 .220))
(define-fun .222 () Bool (and .219 .221))
(define-fun .223 () (_ FP 8 24) b528)
(define-fun .224 () Bool (<= .223 .9))
(define-fun .225 () Bool (and .222 .224))
(define-fun .226 () Bool (<= .9 .220))
(define-fun .227 () Bool (and .225 .226))
(define-fun .228 () Bool (and .188 .227))
(define-fun .229 () (_ FP 11 53) ((_ asFloat 11 53) .3 .113))
(define-fun .230 () Bool (<= .210 .229))
(define-fun .231 () Bool (not .230))
(define-fun .232 () Bool (and .228 .231))
(define-fun .233 () Bool (= .166 .184))
(define-fun .234 () Bool (and .232 .233))
(define-fun .235 () Bool (and .171 .234))
(define-fun .236 () (_ FP 11 53) ((_ asFloat 11 53) .3 .105))
(define-fun .237 () Bool (<= .210 .236))
(define-fun .238 () Bool (not .237))
(define-fun .239 () Bool (and .235 .238))
(define-fun .240 () Bool (= .163 .183))
(define-fun .241 () Bool (and .239 .240))
(define-fun .242 () Bool (and .168 .241))
(define-fun .243 () (_ FP 11 53) ((_ asFloat 11 53) .3 .97))
(define-fun .244 () Bool (<= .210 .243))
(define-fun .245 () Bool (not .244))
(define-fun .246 () Bool (and .242 .245))
(define-fun .247 () Bool (= .160 .182))
(define-fun .248 () Bool (and .246 .247))
(define-fun .249 () Bool (and .165 .248))
(define-fun .250 () (_ FP 11 53) ((_ asFloat 11 53) .3 .89))
(define-fun .251 () Bool (<= .210 .250))
(define-fun .252 () Bool (not .251))
(define-fun .253 () Bool (and .249 .252))
(define-fun .254 () Bool (= .157 .181))
(define-fun .255 () Bool (and .253 .254))
(define-fun .256 () Bool (and .162 .255))
(define-fun .257 () (_ FP 11 53) ((_ asFloat 11 53) .3 .81))
(define-fun .258 () Bool (<= .210 .257))
(define-fun .259 () Bool (not .258))
(define-fun .260 () Bool (and .256 .259))
(define-fun .261 () Bool (= .154 .180))
(define-fun .262 () Bool (and .260 .261))
(define-fun .263 () Bool (and .159 .262))
(define-fun .264 () (_ FP 11 53) ((_ asFloat 11 53) .3 .73))
(define-fun .265 () Bool (<= .210 .264))
(define-fun .266 () Bool (not .265))
(define-fun .267 () Bool (and .263 .266))
(define-fun .268 () Bool (= .151 .179))
(define-fun .269 () Bool (and .267 .268))
(define-fun .270 () Bool (and .156 .269))
(define-fun .271 () (_ FP 11 53) ((_ asFloat 11 53) .3 .65))
(define-fun .272 () Bool (<= .210 .271))
(define-fun .273 () Bool (not .272))
(define-fun .274 () Bool (and .270 .273))
(define-fun .275 () Bool (= .148 .178))
(define-fun .276 () Bool (and .274 .275))
(define-fun .277 () Bool (and .153 .276))
(define-fun .278 () (_ FP 11 53) ((_ asFloat 11 53) .3 .57))
(define-fun .279 () Bool (<= .210 .278))
(define-fun .280 () Bool (not .279))
(define-fun .281 () Bool (and .277 .280))
(define-fun .282 () Bool (= .145 .177))
(define-fun .283 () Bool (and .281 .282))
(define-fun .284 () Bool (and .150 .283))
(define-fun .285 () (_ FP 11 53) ((_ asFloat 11 53) .3 .49))
(define-fun .286 () Bool (<= .210 .285))
(define-fun .287 () Bool (not .286))
(define-fun .288 () Bool (and .284 .287))
(define-fun .289 () Bool (= .142 .176))
(define-fun .290 () Bool (and .288 .289))
(define-fun .291 () Bool (and .147 .290))
(define-fun .292 () (_ FP 11 53) ((_ asFloat 11 53) .3 .41))
(define-fun .293 () Bool (<= .210 .292))
(define-fun .294 () Bool (not .293))
(define-fun .295 () Bool (and .291 .294))
(define-fun .296 () Bool (= .139 .175))
(define-fun .297 () Bool (and .295 .296))
(define-fun .298 () Bool (and .144 .297))
(define-fun .299 () (_ FP 11 53) ((_ asFloat 11 53) .3 .33))
(define-fun .300 () Bool (<= .210 .299))
(define-fun .301 () Bool (not .300))
(define-fun .302 () Bool (and .298 .301))
(define-fun .303 () Bool (= .136 .174))
(define-fun .304 () Bool (and .302 .303))
(define-fun .305 () Bool (and .141 .304))
(define-fun .306 () (_ FP 11 53) ((_ asFloat 11 53) .3 .25))
(define-fun .307 () Bool (<= .210 .306))
(define-fun .308 () Bool (not .307))
(define-fun .309 () Bool (and .305 .308))
(define-fun .310 () Bool (= .133 .173))
(define-fun .311 () Bool (and .309 .310))
(define-fun .312 () Bool (and .138 .311))
(define-fun .313 () (_ FP 11 53) ((_ asFloat 11 53) .3 .17))
(define-fun .314 () Bool (<= .210 .313))
(define-fun .315 () Bool (not .314))
(define-fun .316 () Bool (and .312 .315))
(define-fun .317 () Bool (= .132 .172))
(define-fun .318 () Bool (and .316 .317))
(define-fun .319 () Bool (and .135 .318))
(define-fun .320 () Bool (<= .195 .128))
(define-fun .321 () Bool (not .320))
(define-fun .322 () Bool (and .319 .321))
(define-fun .323 () (_ FP 8 24) (- .128))
(define-fun .324 () Bool (= .129 .323))
(define-fun .325 () Bool (and .322 .324))
(define-fun .326 () Bool (and .131 .325))
(define-fun .327 () Bool (<= .195 .120))
(define-fun .328 () Bool (not .327))
(define-fun .329 () Bool (and .326 .328))
(define-fun .330 () (_ FP 8 24) (- .120))
(define-fun .331 () Bool (= .121 .330))
(define-fun .332 () Bool (and .329 .331))
(define-fun .333 () Bool (and .123 .332))
(define-fun .334 () Bool (<= .195 .112))
(define-fun .335 () Bool (not .334))
(define-fun .336 () Bool (and .333 .335))
(define-fun .337 () (_ FP 8 24) (- .112))
(define-fun .338 () Bool (= .113 .337))
(define-fun .339 () Bool (and .336 .338))
(define-fun .340 () Bool (and .115 .339))
(define-fun .341 () Bool (<= .195 .104))
(define-fun .342 () Bool (not .341))
(define-fun .343 () Bool (and .340 .342))
(define-fun .344 () (_ FP 8 24) (- .104))
(define-fun .345 () Bool (= .105 .344))
(define-fun .346 () Bool (and .343 .345))
(define-fun .347 () Bool (and .107 .346))
(define-fun .348 () Bool (<= .195 .96))
(define-fun .349 () Bool (not .348))
(define-fun .350 () Bool (and .347 .349))
(define-fun .351 () (_ FP 8 24) (- .96))
(define-fun .352 () Bool (= .97 .351))
(define-fun .353 () Bool (and .350 .352))
(define-fun .354 () Bool (and .99 .353))
(define-fun .355 () Bool (<= .195 .88))
(define-fun .356 () Bool (not .355))
(define-fun .357 () Bool (and .354 .356))
(define-fun .358 () (_ FP 8 24) (- .88))
(define-fun .359 () Bool (= .89 .358))
(define-fun .360 () Bool (and .357 .359))
(define-fun .361 () Bool (and .91 .360))
(define-fun .362 () Bool (<= .195 .80))
(define-fun .363 () Bool (not .362))
(define-fun .364 () Bool (and .361 .363))
(define-fun .365 () (_ FP 8 24) (- .80))
(define-fun .366 () Bool (= .81 .365))
(define-fun .367 () Bool (and .364 .366))
(define-fun .368 () Bool (and .83 .367))
(define-fun .369 () Bool (<= .195 .72))
(define-fun .370 () Bool (not .369))
(define-fun .371 () Bool (and .368 .370))
(define-fun .372 () (_ FP 8 24) (- .72))
(define-fun .373 () Bool (= .73 .372))
(define-fun .374 () Bool (and .371 .373))
(define-fun .375 () Bool (and .75 .374))
(define-fun .376 () Bool (<= .195 .64))
(define-fun .377 () Bool (not .376))
(define-fun .378 () Bool (and .375 .377))
(define-fun .379 () (_ FP 8 24) (- .64))
(define-fun .380 () Bool (= .65 .379))
(define-fun .381 () Bool (and .378 .380))
(define-fun .382 () Bool (and .67 .381))
(define-fun .383 () Bool (<= .195 .56))
(define-fun .384 () Bool (not .383))
(define-fun .385 () Bool (and .382 .384))
(define-fun .386 () (_ FP 8 24) (- .56))
(define-fun .387 () Bool (= .57 .386))
(define-fun .388 () Bool (and .385 .387))
(define-fun .389 () Bool (and .59 .388))
(define-fun .390 () Bool (<= .195 .48))
(define-fun .391 () Bool (not .390))
(define-fun .392 () Bool (and .389 .391))
(define-fun .393 () (_ FP 8 24) (- .48))
(define-fun .394 () Bool (= .49 .393))
(define-fun .395 () Bool (and .392 .394))
(define-fun .396 () Bool (and .51 .395))
(define-fun .397 () Bool (<= .195 .40))
(define-fun .398 () Bool (not .397))
(define-fun .399 () Bool (and .396 .398))
(define-fun .400 () (_ FP 8 24) (- .40))
(define-fun .401 () Bool (= .41 .400))
(define-fun .402 () Bool (and .399 .401))
(define-fun .403 () Bool (and .43 .402))
(define-fun .404 () Bool (<= .195 .32))
(define-fun .405 () Bool (not .404))
(define-fun .406 () Bool (and .403 .405))
(define-fun .407 () (_ FP 8 24) (- .32))
(define-fun .408 () Bool (= .33 .407))
(define-fun .409 () Bool (and .406 .408))
(define-fun .410 () Bool (and .35 .409))
(define-fun .411 () Bool (<= .195 .24))
(define-fun .412 () Bool (not .411))
(define-fun .413 () Bool (and .410 .412))
(define-fun .414 () (_ FP 8 24) (- .24))
(define-fun .415 () Bool (= .25 .414))
(define-fun .416 () Bool (and .413 .415))
(define-fun .417 () Bool (and .27 .416))
(define-fun .418 () Bool (<= .195 .16))
(define-fun .419 () Bool (not .418))
(define-fun .420 () Bool (and .417 .419))
(define-fun .421 () (_ FP 8 24) (- .16))
(define-fun .422 () Bool (= .17 .421))
(define-fun .423 () Bool (and .420 .422))
(define-fun .424 () (_ FP 11 53) ((_ asFloat 11 53) .3 .129))
(define-fun .425 () Bool (<= .210 .424))
(define-fun .426 () Bool (not .425))
(define-fun .427 () Bool (and .423 .426))
(define-fun .428 () Bool (and .19 .427))
(assert .428)
(check-sat)
